\ LP format - for model browsing. Use MPS format to capture full model detail.
Minimize
  5 x0 - 4 x1 + 3 x2
Subject To
 constr(0): - x0 - 4 x1 <= 3
 constr(1): - 3 x0 + 3 x1 - 2 x2 = 1
Bounds
 x0 <= 4
 x1 <= 3
 x2 <= 5
End
